
254
750
   598      1
   596      1
   595      1
   593      1
   590      3
   589      1
   588      2
   583      1
   581      1
   579      1
   578      2
   576      2
   574      2
   572      3
   568      1
   566      1
   564      2
   563      2
   562      1
   558      4
   557      1
   556      1
   554      1
   553      4
   550      2
   549      1
   548      1
   547      1
   546      2
   545      2
   544      2
   543      1
   540      1
   539      2
   538      1
   535      2
   533      1
   531      1
   530      3
   528      1
   527      3
   523      1
   521      1
   519      1
   518      1
   517      1
   516      3
   515      2
   513      1
   512      2
   510      3
   507      1
   506      1
   503      1
   502      1
   501      2
   500      2
   498      2
   496      1
   495      1
   492      2
   491      1
   488      1
   487      1
   484      1
   483      1
   482      1
   481      2
   479      4
   477      2
   476      1
   470      1
   469      4
   468      1
   467      2
   466      1
   465      1
   460      1
   458      1
   457      2
   455      1
   454      1
   450      1
   449      1
   448      2
   447      1
   444      1
   443      1
   441      2
   440      1
   439      1
   438      2
   435      2
   434      2
   431      1
   430      3
   429      1
   427      1
   421      1
   420      1
   418      1
   417      1
   416      1
   411      2
   410      1
   409      1
   408      3
   406      1
   404      3
   402      3
   401      3
   400      1
   399      1
   398      1
   396      1
   395      1
   394      1
   393      1
   391      1
   389      1
   386      2
   385      1
   384      1
   382      3
   381      2
   380      1
   379      2
   378      2
   377      2
   376      1
   374      2
   369      1
   368      1
   365      2
   364      1
   362      3
   360      2
   359      2
   357      2
   356      1
   355      1
   354      1
   353      1
   352      3
   351      2
   350      1
   349      1
   348      1
   346      4
   343      1
   342      2
   341      2
   340      1
   339      2
   337      1
   336      2
   334      3
   332      1
   330      1
   328      1
   327      1
   325      2
   324      2
   321      2
   319      1
   317      2
   316      2
   313      3
   312      1
   310      1
   307      1
   306      2
   303      5
   302      1
   301      1
   300      1
   299      1
   298      2
   296      2
   292      1
   290      1
   288      2
   286      1
   285      1
   284      1
   283      1
   282      2
   281      1
   280      2
   279      2
   277      1
   274      5
   269      1
   267      1
   266      2
   265      1
   263      3
   262      3
   259      2
   258      1
   256      1
   254      2
   253      2
   251      1
   249      1
   243      2
   241      1
   239      3
   238      1
   237      2
   235      1
   234      2
   233      1
   230      2
   228      2
   226      1
   224      1
   222      2
   221      2
   220      1
   219      1
   217      2
   212      1
   211      1
   208      1
   207      1
   206      1
   205      2
   204      2
   203      4
   202      2
   201      3
   200      3
   199      1
   195      2
   193      2
   191      2
   182      1
   181      1
   180      1
   178      1
   176      1
   175      1
   174      1
   169      1
   167      1
   166      2
   163      2
   162      2
   160      2
   157      1
   156      2
   154      1
   152      1




The initial LP solution: time=0.26


File: BPP_400_750_0.2_0.8_2.txt  Instance No. 1
Wed Feb 25 13:38:43 2015

LP solution: lpval=207 lpbnd=207

1: 0:1 253:1 obj 1\\
1: 1:1 252:1 obj 1\\
1: 2:1 obj 1\\
1: 3:1 250:1 obj 1\\
2: 4:1 249:1 obj 1\\
1: 4:1 251:1 obj 1\\
1: 5:1 251:1 obj 1\\
2: 6:1 248:1 obj 1\\
1: 7:1 245:1 obj 1\\
1: 8:1 244:1 obj 1\\
1: 9:1 246:1 obj 1\\
2: 10:1 247:1 obj 1\\
1: 11:1 243:1 obj 1\\
1: 11:1 246:1 obj 1\\
1: 12:1 241:1 obj 1\\
1: 12:1 242:1 obj 1\\
2: 13:1 obj 1\\
1: 13:1 240:1 obj 1\\
1: 14:1 237:1 obj 1\\
1: 15:1 238:1 obj 1\\
1: 16:1 obj 1\\
1: 16:1 239:1 obj 1\\
2: 17:1 obj 1\\
1: 18:1 obj 1\\
2: 19:1 obj 1\\
2: 19:1 236:1 obj 1\\
1: 20:1 235:1 obj 1\\
1: 21:1 235:1 obj 1\\
1: 22:1 234:1 obj 1\\
2: 23:1 obj 1\\
2: 23:1 234:1 obj 1\\
2: 24:1 232:1 obj 1\\
1: 25:1 231:1 obj 1\\
1: 26:1 230:1 obj 1\\
2: 28:1 228:1 obj 1\\
2: 29:1 227:1 obj 1\\
1: 30:1 obj 1\\
1: 30:1 226:1 obj 1\\
1: 31:1 225:1 obj 1\\
1: 32:1 224:1 obj 1\\
1: 33:1 obj 1\\
1: 33:1 223:1 obj 1\\
1: 34:1 222:1 obj 1\\
1: 35:1 229:1 obj 1\\
1: 36:1 221:1 obj 1\\
1: 37:1 220:1 obj 1\\
1: 38:1 219:1 obj 1\\
2: 38:1 229:1 obj 1\\
1: 40:1 obj 1\\
2: 40:1 218:1 obj 1\\
1: 41:1 215:1 obj 1\\
1: 42:1 214:1 obj 1\\
1: 44:1 213:1 obj 1\\
1: 45:1 212:1 obj 1\\
2: 46:1 211:1 obj 1\\
1: 47:1 210:1 obj 1\\
1: 48:1 209:1 obj 1\\
1: 49:1 obj 1\\
1: 49:1 208:1 obj 1\\
3: 50:1 207:1 obj 1\\
1: 52:1 206:1 obj 1\\
1: 53:1 205:1 obj 1\\
1: 54:1 209:1 obj 1\\
1: 55:1 204:1 obj 1\\
2: 56:1 217:1 obj 1\\
1: 57:1 obj 1\\
1: 57:1 203:1 obj 1\\
1: 58:1 201:1 obj 1\\
1: 59:1 202:1 obj 1\\
1: 60:1 199:1 obj 1\\
1: 60:1 201:1 obj 1\\
1: 61:1 198:1 obj 1\\
1: 62:1 197:1 obj 1\\
1: 63:1 196:1 obj 1\\
1: 64:1 194:1 obj 1\\
1: 65:1 193:1 obj 1\\
1: 66:1 194:1 obj 1\\
1: 67:1 192:1 obj 1\\
1: 67:1 195:1 obj 1\\
2: 68:1 196:1 obj 1\\
1: 68:1 198:1 obj 1\\
1: 68:1 202:1 obj 1\\
2: 69:1 197:1 obj 1\\
1: 70:1 191:1 obj 1\\
1: 71:1 188:1 obj 1\\
1: 72:1 187:1 obj 1\\
1: 72:1 188:1 obj 1\\
2: 72:1 189:1 obj 1\\
1: 73:1 186:1 obj 1\\
1: 74:1 185:1 obj 1\\
1: 74:1 186:1 obj 1\\
1: 75:1 184:1 obj 1\\
1: 76:1 183:1 obj 1\\
1: 77:1 180:1 obj 1\\
1: 78:1 179:1 obj 1\\
2: 79:1 181:1 obj 1\\
1: 80:1 182:1 obj 1\\
1: 81:1 178:1 obj 1\\
1: 82:1 175:1 obj 1\\
1: 83:1 174:1 obj 1\\
1: 84:1 173:1 obj 1\\
1: 85:1 172:1 obj 1\\
1: 86:1 171:1 obj 1\\
1: 87:1 170:1 obj 1\\
1: 88:1 176:1 obj 1\\
1: 88:1 177:1 obj 1\\
1: 89:1 169:1 obj 1\\
1: 90:1 172:1 obj 1\\
1: 91:1 168:1 obj 1\\
1: 91:1 172:1 obj 1\\
2: 92:1 167:1 obj 1\\
2: 93:1 166:1 obj 1\\
1: 94:1 164:1 obj 1\\
2: 95:1 165:1 obj 1\\
1: 95:1 172:1 obj 1\\
1: 96:1 163:1 obj 1\\
1: 97:1 163:1 obj 1\\
1: 98:1 159:1 obj 1\\
1: 99:1 158:1 obj 1\\
1: 100:1 157:1 obj 1\\
1: 101:1 160:1 obj 1\\
1: 102:1 156:1 obj 1\\
2: 103:1 153:1 obj 1\\
1: 104:1 152:1 obj 1\\
1: 105:1 151:1 obj 1\\
2: 106:1 150:1 obj 1\\
1: 106:1 151:1 obj 1\\
1: 107:1 149:1 obj 1\\
3: 108:1 148:1 obj 1\\
1: 109:1 147:1 obj 1\\
1: 109:1 148:1 obj 1\\
1: 109:1 156:1 obj 1\\
1: 110:1 146:1 obj 1\\
1: 110:1 154:1 obj 1\\
1: 110:1 155:1 obj 1\\
1: 111:1 145:1 obj 1\\
1: 112:1 144:1 obj 1\\
1: 113:1 143:1 obj 1\\
1: 114:1 141:1 obj 1\\
1: 115:1 140:1 obj 1\\
1: 116:1 139:1 obj 1\\
1: 117:1 138:1 obj 1\\
1: 118:1 137:1 obj 1\\
1: 119:1 136:1 obj 1\\
1: 120:1 134:1 obj 1\\
1: 120:1 135:1 obj 1\\
1: 121:1 133:1 obj 1\\
1: 122:1 135:1 obj 1\\
1: 123:1 132:1 obj 1\\
2: 123:1 161:1 obj 1\\
1: 124:1 131:1 obj 1\\
1: 124:1 156:1 obj 1\\
1: 125:1 138:1 obj 1\\
1: 126:1 142:1 obj 1\\
1: 126:1 143:1 obj 1\\
1: 127:1 135:1 obj 1\\
1: 127:1 143:1 obj 1\\
1: 128:1 136:1 obj 1\\
1: 128:1 155:1 obj 1\\
1: 129:1 130:1 obj 1\\
1: 130:1 133:1 obj 1\\
1: 137:1 167:1 obj 1\\
1: 162:2 obj 1\\
1: 171:1 172:1 obj 1\\
1: 190:1 200:1 221:1 obj 1\\
1: 191:2 231:1 obj 1\\
1: 234:-1 obj 0\\
0.5: 144:2 obj 1\\
1: 191:2 233:1 obj 1\\
1: 35:1 232:1 obj 1\\
1: 51:1 213:1 obj 1\\
1: 27:1 230:1 obj 1\\
1: 39:1 229:1 obj 1\\
1: 43:1 231:1 obj 1\\
1: 46:1 216:1 obj 1\\
1: 84:1 178:1 obj 1\\
1: 47:1 214:1 obj 1\\
1: 55:1 205:1 obj 1\\
0.5: 177:2 obj 1\\






File: BPP_400_750_0.2_0.8_2.txt  Instance No. 1
Wed Feb 25 13:38:43 2015

LP0 Time: 0.26 IPTime: 0.26 The best integer solution (207):

1: 0:1 253:1 obj 1\\
1: 1:1 252:1 obj 1\\
1: 2:1 obj 1\\
1: 3:1 250:1 obj 1\\
2: 4:1 249:1 obj 1\\
1: 4:1 251:1 obj 1\\
1: 5:1 251:1 obj 1\\
2: 6:1 248:1 obj 1\\
1: 7:1 245:1 obj 1\\
1: 8:1 244:1 obj 1\\
1: 9:1 246:1 obj 1\\
2: 10:1 247:1 obj 1\\
1: 11:1 243:1 obj 1\\
1: 11:1 246:1 obj 1\\
1: 12:1 241:1 obj 1\\
1: 12:1 242:1 obj 1\\
2: 13:1 obj 1\\
1: 13:1 240:1 obj 1\\
1: 14:1 237:1 obj 1\\
1: 15:1 238:1 obj 1\\
1: 16:1 obj 1\\
1: 16:1 239:1 obj 1\\
2: 17:1 obj 1\\
1: 18:1 obj 1\\
2: 19:1 obj 1\\
2: 19:1 236:1 obj 1\\
1: 20:1 235:1 obj 1\\
1: 21:1 235:1 obj 1\\
1: 22:1 234:1 obj 1\\
2: 23:1 obj 1\\
2: 23:1 234:1 obj 1\\
2: 24:1 232:1 obj 1\\
1: 25:1 231:1 obj 1\\
1: 26:1 230:1 obj 1\\
2: 28:1 228:1 obj 1\\
2: 29:1 227:1 obj 1\\
1: 30:1 obj 1\\
1: 30:1 226:1 obj 1\\
1: 31:1 225:1 obj 1\\
1: 32:1 224:1 obj 1\\
1: 33:1 obj 1\\
1: 33:1 223:1 obj 1\\
1: 34:1 222:1 obj 1\\
1: 35:1 229:1 obj 1\\
1: 36:1 221:1 obj 1\\
1: 37:1 220:1 obj 1\\
1: 38:1 219:1 obj 1\\
2: 38:1 229:1 obj 1\\
1: 40:1 obj 1\\
2: 40:1 218:1 obj 1\\
1: 41:1 215:1 obj 1\\
1: 42:1 214:1 obj 1\\
1: 44:1 213:1 obj 1\\
1: 45:1 212:1 obj 1\\
2: 46:1 211:1 obj 1\\
1: 47:1 210:1 obj 1\\
1: 48:1 209:1 obj 1\\
1: 49:1 obj 1\\
1: 49:1 208:1 obj 1\\
3: 50:1 207:1 obj 1\\
1: 52:1 206:1 obj 1\\
1: 53:1 205:1 obj 1\\
1: 54:1 209:1 obj 1\\
1: 55:1 204:1 obj 1\\
2: 56:1 217:1 obj 1\\
1: 57:1 obj 1\\
1: 57:1 203:1 obj 1\\
1: 58:1 201:1 obj 1\\
1: 59:1 202:1 obj 1\\
1: 60:1 199:1 obj 1\\
1: 60:1 201:1 obj 1\\
1: 61:1 198:1 obj 1\\
1: 62:1 197:1 obj 1\\
1: 63:1 196:1 obj 1\\
1: 64:1 194:1 obj 1\\
1: 65:1 193:1 obj 1\\
1: 66:1 194:1 obj 1\\
1: 67:1 192:1 obj 1\\
1: 67:1 195:1 obj 1\\
2: 68:1 196:1 obj 1\\
1: 68:1 198:1 obj 1\\
1: 68:1 202:1 obj 1\\
2: 69:1 197:1 obj 1\\
1: 70:1 191:1 obj 1\\
1: 71:1 188:1 obj 1\\
1: 72:1 187:1 obj 1\\
1: 72:1 188:1 obj 1\\
2: 72:1 189:1 obj 1\\
1: 73:1 186:1 obj 1\\
1: 74:1 185:1 obj 1\\
1: 74:1 186:1 obj 1\\
1: 75:1 184:1 obj 1\\
1: 76:1 183:1 obj 1\\
1: 77:1 180:1 obj 1\\
1: 78:1 179:1 obj 1\\
2: 79:1 181:1 obj 1\\
1: 80:1 182:1 obj 1\\
1: 81:1 178:1 obj 1\\
1: 82:1 175:1 obj 1\\
1: 83:1 174:1 obj 1\\
1: 84:1 173:1 obj 1\\
1: 85:1 172:1 obj 1\\
1: 86:1 171:1 obj 1\\
1: 87:1 170:1 obj 1\\
1: 88:1 176:1 obj 1\\
1: 88:1 177:1 obj 1\\
1: 89:1 169:1 obj 1\\
1: 90:1 172:1 obj 1\\
1: 91:1 168:1 obj 1\\
1: 91:1 172:1 obj 1\\
2: 92:1 167:1 obj 1\\
2: 93:1 166:1 obj 1\\
1: 94:1 164:1 obj 1\\
2: 95:1 165:1 obj 1\\
1: 95:1 172:1 obj 1\\
1: 96:1 163:1 obj 1\\
1: 97:1 163:1 obj 1\\
1: 98:1 159:1 obj 1\\
1: 99:1 158:1 obj 1\\
1: 100:1 157:1 obj 1\\
1: 101:1 160:1 obj 1\\
1: 102:1 156:1 obj 1\\
2: 103:1 153:1 obj 1\\
1: 104:1 152:1 obj 1\\
1: 105:1 151:1 obj 1\\
2: 106:1 150:1 obj 1\\
1: 106:1 151:1 obj 1\\
1: 107:1 149:1 obj 1\\
3: 108:1 148:1 obj 1\\
1: 109:1 147:1 obj 1\\
1: 109:1 148:1 obj 1\\
1: 109:1 156:1 obj 1\\
1: 110:1 146:1 obj 1\\
1: 110:1 154:1 obj 1\\
1: 110:1 155:1 obj 1\\
1: 111:1 145:1 obj 1\\
1: 112:1 144:1 obj 1\\
1: 113:1 143:1 obj 1\\
1: 114:1 141:1 obj 1\\
1: 115:1 140:1 obj 1\\
1: 116:1 139:1 obj 1\\
1: 117:1 138:1 obj 1\\
1: 118:1 137:1 obj 1\\
1: 119:1 136:1 obj 1\\
1: 120:1 134:1 obj 1\\
1: 120:1 135:1 obj 1\\
1: 121:1 133:1 obj 1\\
1: 122:1 135:1 obj 1\\
1: 123:1 132:1 obj 1\\
2: 123:1 161:1 obj 1\\
1: 124:1 131:1 obj 1\\
1: 124:1 156:1 obj 1\\
1: 125:1 138:1 obj 1\\
1: 126:1 142:1 obj 1\\
1: 126:1 143:1 obj 1\\
1: 127:1 135:1 obj 1\\
1: 127:1 143:1 obj 1\\
1: 128:1 136:1 obj 1\\
1: 128:1 155:1 obj 1\\
1: 129:1 130:1 obj 1\\
1: 130:1 133:1 obj 1\\
1: 137:1 167:1 obj 1\\
1: 162:2 obj 1\\
1: 171:1 172:1 obj 1\\
1: 190:1 200:1 221:1 obj 1\\
1: 191:2 231:1 obj 1\\
1: 191:2 233:1 obj 1\\
1: 35:1 232:1 obj 1\\
1: 51:1 213:1 obj 1\\
1: 27:1 230:1 obj 1\\
1: 39:1 229:1 obj 1\\
1: 43:1 231:1 obj 1\\
1: 46:1 216:1 obj 1\\
1: 84:1 178:1 obj 1\\
1: 47:1 214:1 obj 1\\
1: 55:1 205:1 obj 1\\
1: 144:1 177:1 obj 1\\



The last LP solution 


File: BPP_400_750_0.2_0.8_2.txt  Instance No. 1
Wed Feb 25 13:38:43 2015

LP solution: lpval=207 lpbnd=207

1: 0:1 253:1 obj 1\\
1: 1:1 252:1 obj 1\\
1: 2:1 obj 1\\
1: 3:1 250:1 obj 1\\
2: 4:1 249:1 obj 1\\
1: 4:1 251:1 obj 1\\
1: 5:1 251:1 obj 1\\
2: 6:1 248:1 obj 1\\
1: 7:1 245:1 obj 1\\
1: 8:1 244:1 obj 1\\
1: 9:1 246:1 obj 1\\
2: 10:1 247:1 obj 1\\
1: 11:1 243:1 obj 1\\
1: 11:1 246:1 obj 1\\
1: 12:1 241:1 obj 1\\
1: 12:1 242:1 obj 1\\
2: 13:1 obj 1\\
1: 13:1 240:1 obj 1\\
1: 14:1 237:1 obj 1\\
1: 15:1 238:1 obj 1\\
1: 16:1 obj 1\\
1: 16:1 239:1 obj 1\\
2: 17:1 obj 1\\
1: 18:1 obj 1\\
2: 19:1 obj 1\\
2: 19:1 236:1 obj 1\\
1: 20:1 235:1 obj 1\\
1: 21:1 235:1 obj 1\\
1: 22:1 234:1 obj 1\\
2: 23:1 obj 1\\
2: 23:1 234:1 obj 1\\
2: 24:1 232:1 obj 1\\
1: 25:1 231:1 obj 1\\
1: 26:1 230:1 obj 1\\
2: 28:1 228:1 obj 1\\
2: 29:1 227:1 obj 1\\
1: 30:1 obj 1\\
1: 30:1 226:1 obj 1\\
1: 31:1 225:1 obj 1\\
1: 32:1 224:1 obj 1\\
1: 33:1 obj 1\\
1: 33:1 223:1 obj 1\\
1: 34:1 222:1 obj 1\\
1: 35:1 229:1 obj 1\\
1: 36:1 221:1 obj 1\\
1: 37:1 220:1 obj 1\\
1: 38:1 219:1 obj 1\\
2: 38:1 229:1 obj 1\\
1: 40:1 obj 1\\
2: 40:1 218:1 obj 1\\
1: 41:1 215:1 obj 1\\
1: 42:1 214:1 obj 1\\
1: 44:1 213:1 obj 1\\
1: 45:1 212:1 obj 1\\
2: 46:1 211:1 obj 1\\
1: 47:1 210:1 obj 1\\
1: 48:1 209:1 obj 1\\
1: 49:1 obj 1\\
1: 49:1 208:1 obj 1\\
3: 50:1 207:1 obj 1\\
1: 52:1 206:1 obj 1\\
1: 53:1 205:1 obj 1\\
1: 54:1 209:1 obj 1\\
1: 55:1 204:1 obj 1\\
2: 56:1 217:1 obj 1\\
1: 57:1 obj 1\\
1: 57:1 203:1 obj 1\\
1: 58:1 201:1 obj 1\\
1: 59:1 202:1 obj 1\\
1: 60:1 199:1 obj 1\\
1: 60:1 201:1 obj 1\\
1: 61:1 198:1 obj 1\\
1: 62:1 197:1 obj 1\\
1: 63:1 196:1 obj 1\\
1: 64:1 194:1 obj 1\\
1: 65:1 193:1 obj 1\\
1: 66:1 194:1 obj 1\\
1: 67:1 192:1 obj 1\\
1: 67:1 195:1 obj 1\\
2: 68:1 196:1 obj 1\\
1: 68:1 198:1 obj 1\\
1: 68:1 202:1 obj 1\\
2: 69:1 197:1 obj 1\\
1: 70:1 191:1 obj 1\\
1: 71:1 188:1 obj 1\\
1: 72:1 187:1 obj 1\\
1: 72:1 188:1 obj 1\\
2: 72:1 189:1 obj 1\\
1: 73:1 186:1 obj 1\\
1: 74:1 185:1 obj 1\\
1: 74:1 186:1 obj 1\\
1: 75:1 184:1 obj 1\\
1: 76:1 183:1 obj 1\\
1: 77:1 180:1 obj 1\\
1: 78:1 179:1 obj 1\\
2: 79:1 181:1 obj 1\\
1: 80:1 182:1 obj 1\\
1: 81:1 178:1 obj 1\\
1: 82:1 175:1 obj 1\\
1: 83:1 174:1 obj 1\\
1: 84:1 173:1 obj 1\\
1: 85:1 172:1 obj 1\\
1: 86:1 171:1 obj 1\\
1: 87:1 170:1 obj 1\\
1: 88:1 176:1 obj 1\\
1: 88:1 177:1 obj 1\\
1: 89:1 169:1 obj 1\\
1: 90:1 172:1 obj 1\\
1: 91:1 168:1 obj 1\\
1: 91:1 172:1 obj 1\\
2: 92:1 167:1 obj 1\\
2: 93:1 166:1 obj 1\\
1: 94:1 164:1 obj 1\\
2: 95:1 165:1 obj 1\\
1: 95:1 172:1 obj 1\\
1: 96:1 163:1 obj 1\\
1: 97:1 163:1 obj 1\\
1: 98:1 159:1 obj 1\\
1: 99:1 158:1 obj 1\\
1: 100:1 157:1 obj 1\\
1: 101:1 160:1 obj 1\\
1: 102:1 156:1 obj 1\\
2: 103:1 153:1 obj 1\\
1: 104:1 152:1 obj 1\\
1: 105:1 151:1 obj 1\\
2: 106:1 150:1 obj 1\\
1: 106:1 151:1 obj 1\\
1: 107:1 149:1 obj 1\\
3: 108:1 148:1 obj 1\\
1: 109:1 147:1 obj 1\\
1: 109:1 148:1 obj 1\\
1: 109:1 156:1 obj 1\\
1: 110:1 146:1 obj 1\\
1: 110:1 154:1 obj 1\\
1: 110:1 155:1 obj 1\\
1: 111:1 145:1 obj 1\\
1: 112:1 144:1 obj 1\\
1: 113:1 143:1 obj 1\\
1: 114:1 141:1 obj 1\\
1: 115:1 140:1 obj 1\\
1: 116:1 139:1 obj 1\\
1: 117:1 138:1 obj 1\\
1: 118:1 137:1 obj 1\\
1: 119:1 136:1 obj 1\\
1: 120:1 134:1 obj 1\\
1: 120:1 135:1 obj 1\\
1: 121:1 133:1 obj 1\\
1: 122:1 135:1 obj 1\\
1: 123:1 132:1 obj 1\\
2: 123:1 161:1 obj 1\\
1: 124:1 131:1 obj 1\\
1: 124:1 156:1 obj 1\\
1: 125:1 138:1 obj 1\\
1: 126:1 142:1 obj 1\\
1: 126:1 143:1 obj 1\\
1: 127:1 135:1 obj 1\\
1: 127:1 143:1 obj 1\\
1: 128:1 136:1 obj 1\\
1: 128:1 155:1 obj 1\\
1: 129:1 130:1 obj 1\\
1: 130:1 133:1 obj 1\\
1: 137:1 167:1 obj 1\\
1: 162:2 obj 1\\
1: 171:1 172:1 obj 1\\
1: 190:1 200:1 221:1 obj 1\\
1: 191:2 231:1 obj 1\\
1: 234:-1 obj 0\\
0.5: 144:2 obj 1\\
1: 191:2 233:1 obj 1\\
1: 35:1 232:1 obj 1\\
1: 51:1 213:1 obj 1\\
1: 27:1 230:1 obj 1\\
1: 39:1 229:1 obj 1\\
1: 43:1 231:1 obj 1\\
1: 46:1 216:1 obj 1\\
1: 84:1 178:1 obj 1\\
1: 47:1 214:1 obj 1\\
1: 55:1 205:1 obj 1\\
0.5: 177:2 obj 1\\



